p cnf 135 492
-2 3 -4 0
2 -3 -4 0
-2 -3 4 0
2 3 4 0
4 -5 -6 0
-4 5 -6 0
4 5 6 0
-4 -5 6 0
7 -1 0
7 -6 0
1 6 -7 0
9 -2 0
9 -8 0
2 8 -9 0
10 -11 -12 0
-10 11 -12 0
10 11 12 0
-10 -11 12 0
-9 -12 -13 0
9 12 -13 0
-9 12 13 0
9 -12 13 0
-13 14 -15 0
13 -14 -15 0
-13 -14 15 0
13 14 15 0
17 -4 0
17 14 0
4 -14 -17 0
-18 4 0
-18 3 0
-4 -3 18 0
-19 17 0
-19 18 0
-17 -18 19 0
-16 19 -20 0
16 -19 -20 0
-16 -19 20 0
16 19 20 0
20 -21 -22 0
-20 21 -22 0
20 21 22 0
-20 -21 22 0
14 12 -23 0
-14 -12 -23 0
14 -12 23 0
-14 12 23 0
24 23 0
24 11 0
-23 -11 -24 0
24 25 -26 0
-24 -25 -26 0
24 -25 26 0
-24 25 26 0
-27 5 0
-27 12 0
-5 -12 27 0
-27 -28 -29 0
27 28 -29 0
-27 28 29 0
27 -28 29 0
30 26 0
30 29 0
-26 -29 -30 0
22 -30 -31 0
-22 30 -31 0
22 30 31 0
-22 -30 31 0
32 15 0
32 31 0
-15 -31 -32 0
33 -14 0
33 -28 0
14 28 -33 0
33 34 -35 0
-33 -34 -35 0
33 -34 35 0
-33 34 35 0
36 23 0
36 -20 0
-23 20 -36 0
35 -36 -37 0
-35 36 -37 0
35 36 37 0
-35 -36 37 0
-32 -37 -38 0
32 37 -38 0
-32 37 38 0
32 -37 38 0
-39 -27 0
-39 -9 0
27 9 39 0
-40 -17 0
-40 39 0
17 -39 40 0
42 41 0
42 21 0
-41 -21 -42 0
28 42 -43 0
-28 -42 -43 0
28 -42 43 0
-28 42 43 0
-41 43 -44 0
41 -43 -44 0
-41 -43 44 0
41 43 44 0
45 -17 0
45 17 0
44 -45 -46 0
-44 45 -46 0
44 45 46 0
-44 -45 46 0
-47 -40 0
-47 46 0
40 -46 47 0
9 10 -48 0
-9 -10 -48 0
9 -10 48 0
-9 10 48 0
10 48 -49 0
-10 -48 -49 0
10 -48 49 0
-10 48 49 0
50 -49 0
50 -28 0
49 28 -50 0
14 -10 -51 0
-14 10 -51 0
14 10 51 0
-14 -10 51 0
52 51 0
52 4 0
-51 -4 -52 0
-53 52 0
-53 -8 0
-52 8 53 0
54 -53 0
54 9 0
53 -9 -54 0
-55 50 0
-55 -54 0
-50 54 55 0
47 -55 -56 0
-47 55 -56 0
47 55 56 0
-47 -55 56 0
57 -2 0
57 -14 0
2 14 -57 0
-58 -25 0
-58 1 0
25 -1 58 0
59 -58 0
59 -10 0
58 10 -59 0
-60 59 0
-60 -29 0
-59 29 60 0
61 60 0
61 9 0
-60 -9 -61 0
26 -3 -62 0
-26 3 -62 0
26 3 62 0
-26 -3 62 0
63 -13 0
63 62 0
13 -62 -63 0
25 49 -64 0
-25 -49 -64 0
25 -49 64 0
-25 49 64 0
65 -64 0
65 -58 0
64 58 -65 0
66 -63 0
66 65 0
63 -65 -66 0
67 -61 0
67 -66 0
61 66 -67 0
-68 41 0
-68 -18 0
-41 18 68 0
69 -3 0
69 -1 0
3 1 -69 0
70 4 0
70 -28 0
-4 28 -70 0
-70 8 -71 0
70 -8 -71 0
-70 -8 71 0
70 8 71 0
72 27 0
72 12 0
-27 -12 -72 0
-71 -72 -73 0
71 72 -73 0
-71 72 73 0
71 -72 73 0
-69 -73 -74 0
69 73 -74 0
-69 73 74 0
69 -73 74 0
75 -68 0
75 74 0
68 -74 -75 0
76 -67 0
76 75 0
67 -75 -76 0
77 -57 0
77 -76 0
57 76 -77 0
78 56 0
78 -77 0
-56 77 -78 0
23 -69 -79 0
-23 69 -79 0
23 69 79 0
-23 -69 79 0
80 18 0
80 70 0
-18 -70 -80 0
-81 -71 0
-81 -80 0
71 80 81 0
82 79 0
82 81 0
-79 -81 -82 0
-82 -20 -83 0
82 20 -83 0
-82 20 83 0
82 -20 83 0
-6 -41 -84 0
6 41 -84 0
-6 41 84 0
6 -41 84 0
85 84 0
85 -41 0
-84 41 -85 0
85 -81 -86 0
-85 81 -86 0
85 81 86 0
-85 -81 86 0
87 86 0
87 20 0
-86 -20 -87 0
-88 -83 0
-88 87 0
83 -87 88 0
89 -70 0
89 16 0
70 -16 -89 0
-23 3 -90 0
23 -3 -90 0
-23 -3 90 0
23 3 90 0
-91 90 0
-91 39 0
-90 -39 91 0
89 -91 -92 0
-89 91 -92 0
89 91 92 0
-89 -91 92 0
-93 88 0
-93 -92 0
-88 92 93 0
-94 -1 0
-94 48 0
1 -48 94 0
94 84 -95 0
-94 -84 -95 0
94 -84 95 0
-94 84 95 0
93 95 -96 0
-93 -95 -96 0
93 -95 96 0
-93 95 96 0
-97 -78 0
-97 96 0
78 -96 97 0
-38 -97 -98 0
38 97 -98 0
-38 97 98 0
38 -97 98 0
69 -21 -99 0
-69 21 -99 0
69 21 99 0
-69 -21 99 0
100 28 0
100 -99 0
-28 99 -100 0
-101 59 0
-101 100 0
-59 -100 101 0
84 48 -102 0
-84 -48 -102 0
84 -48 102 0
-84 48 102 0
-103 102 0
-103 -50 0
-102 50 103 0
-104 -101 0
-104 103 0
101 -103 104 0
-105 42 0
-105 -100 0
-42 100 105 0
106 -100 0
106 -90 0
100 90 -106 0
-91 -106 -107 0
91 106 -107 0
-91 106 107 0
91 -106 107 0
-10 12 -108 0
10 -12 -108 0
-10 -12 108 0
10 12 108 0
-8 39 -109 0
8 -39 -109 0
-8 -39 109 0
8 39 109 0
110 108 0
110 109 0
-108 -109 -110 0
-107 110 -111 0
107 -110 -111 0
-107 -110 111 0
107 110 111 0
112 -105 0
112 111 0
105 -111 -112 0
113 104 0
113 -112 0
-104 112 -113 0
33 53 -114 0
-33 -53 -114 0
33 -53 114 0
-33 53 114 0
72 -114 -115 0
-72 114 -115 0
72 114 115 0
-72 -114 115 0
-116 99 0
-116 48 0
-99 -48 116 0
117 -3 0
117 116 0
3 -116 -117 0
-118 115 0
-118 -117 0
-115 117 118 0
119 -72 0
119 -16 0
72 16 -119 0
-120 118 0
-120 119 0
-118 -119 120 0
121 81 0
121 -53 0
-81 53 -121 0
-122 -19 0
-122 121 0
19 -121 122 0
123 -122 0
123 82 0
122 -82 -123 0
124 -16 0
124 -26 0
16 26 -124 0
124 51 -125 0
-124 -51 -125 0
124 -51 125 0
-124 51 125 0
-126 -10 0
-126 23 0
10 -23 126 0
127 -21 0
127 -126 0
21 126 -127 0
128 -125 0
128 127 0
125 -127 -128 0
-129 -8 0
-129 28 0
8 -28 129 0
128 129 -130 0
-128 -129 -130 0
128 -129 130 0
-128 129 130 0
131 123 0
131 130 0
-123 -130 -131 0
-120 -131 -132 0
120 131 -132 0
-120 131 132 0
120 -131 132 0
113 132 -133 0
-113 -132 -133 0
113 -132 133 0
-113 132 133 0
134 -98 0
134 -133 0
98 133 -134 0
135 7 0
135 134 0
-7 -134 -135 0
66 124 0
11 -40 90 -23 0
115 68 41 -103 0
115 31 0
59 96 0
-54 66 -123 -48 0
-88 -116 -118 -53 105 0
-92 -14 117 -101 0
65 -90 21 -102 78 119 0
-31 -52 -104 0
-52 80 46 -103 45 0
128 -10 -75 107 -124 -91 0
-14 -24 0
101 -66 -86 0
135 -28 -2 -82 -4 0
-15 109 -79 0
-19 -41 31 -2 22 0
65 -30 -107 -102 0
-30 -98 -29 0
-58 59 47 61 0
-45 8 0
130 -61 -89 0
8 -3 -93 -15 22 0
12 10 -40 -3 76 -122 0
84 116 2 -76 0
2 80 -38 39 0
29 -19 0
25 134 -49 0
120 -51 -133 -117 0
-15 -91 0
22 -32 -46 0
93 -76 0
98 105 94 0
-127 -124 -33 0
-8 -64 0
71 -49 0
-77 -120 -114 38 0
23 -42 -14 0
103 72 -39 113 -32 0
20 -64 0
-47 -107 65 42 0
35 79 129 0
36 85 -112 0
-57 8 0
117 -45 -2 78 -97 17 0
78 13 0
58 44 52 -39 0
-103 -94 0
43 -102 0
69 5 -75 131 84 -68 0
12 -26 -28 84 -43 0
-124 14 111 -34 0
-38 -130 -6 93 -129 0
-98 129 0
-81 -100 0
97 16 -23 -8 -7 0
-19 41 100 3 -53 0
50 -30 -64 0
116 -39 0
-41 -30 106 97 71 0
-132 -20 0
-123 9 -13 94 -97 86 0
-80 -38 93 66 0
-97 -24 -61 -67 0
67 -83 -15 0
-9 -50 91 100 80 0
103 -14 -110 0
42 62 135 -104 -100 -69 0
-1 -81 0
-37 43 9 77 0
-78 85 0
48 -69 20 0
95 -115 0
-24 -11 90 81 -125 0
121 -109 0
-109 -21 -117 111 -53 0
49 48 -104 -58 -85 55 0
-65 -83 0
126 -75 0
-19 88 -100 0
-102 -134 -118 133 0
-129 43 84 -5 -27 -60 0
135 0
